(set-logic LIA)

(declare-const tmp___0 Int)
(declare-const tmp___0! Int)
(declare-const tmp Int)
(declare-const tmp! Int)
(declare-const c Int)
(declare-const c! Int)

(declare-const c_39 Int)
(declare-const c_34 Int)
(declare-const c_33 Int)
(declare-const c_30 Int)

(define-fun inv-f((c Int)(tmp Int)(tmp___0 Int)) Bool
